* #variable= 75 #constraint= 152
min:  +1 x1 +1 x2 +1 x3 +1 x4 +1 x5 +1 x6 +1 x7 +1 x8 +1 x9 +1 x10 +1 x11 +1 x12 +1 x13 +1 x14 +1 x15 +1 x16 +1 x17 +1 x18 +1 x19 +1 x20 +1 x21 +1 x22 +1 x23 +1 x24 +1 x25 +1 x26 +1 x27 +1 x28 +1 x29 +1 x30 +1 x31 +1 x32 +1 x33 +1 x34 +1 x35 +1 x36 +1 x37 +1 x38 +1 x39 +1 x40 +1 x41 +1 x42 +1 x43 +1 x44 +1 x45 +1 x46 +1 x47 +1 x48 +1 x49 +1 x50 +1 x51 +1 x52 +1 x53 +1 x54 +1 x55 +1 x56 +1 x57 +1 x58 +1 x59 +1 x60 +1 x61 +1 x62 +1 x63 +1 x64 +1 x65 +1 x66 +1 x67 +1 x68 +1 x69 +1 x70 +1 x71 +1 x72 +1 x73 +1 x74 +1 x75;
1 x1 >= 1;
1 x4 >= 1;
+1 x2 +1 x6  = 1;
+1 x3 +1 x5 +1 x9  = 1;
1 x32 >= 1;
1 x45 >= 1;
+1 x31 +1 x27 +1 x33 +1 x37  = 1;
+1 x44 +1 x40 +1 x50  = 1;
1 x62 >= 1;
1 x65 >= 1;
+1 x61 +1 x57 +1 x63 +1 x67  = 1;
+1 x64 +1 x60 +1 x70  = 1;
 -1 x1 -1 x26 -1 x51 >= -1;
-1 x1 -1 x7 -1 x11  +3 ~x6 >= -2;
+1 x1 +1 x7 +1 x11  +3 ~x6 >= 2;
-1 x26 -1 x32 -1 x36  +3 ~x31 >= -2;
+1 x26 +1 x32 +1 x36  +3 ~x31 >= 2;
-1 x51 -1 x57 -1 x61  +3 ~x56 >= -2;
+1 x51 +1 x57 +1 x61  +3 ~x56 >= 2;
 -1 x6 -1 x31 -1 x56 >= -1;
-1 x6 -1 x12 -1 x16  +3 ~x11 >= -2;
+1 x6 +1 x12 +1 x16  +3 ~x11 >= 2;
-1 x31 -1 x37 -1 x41  +3 ~x36 >= -2;
+1 x31 +1 x37 +1 x41  +3 ~x36 >= 2;
-1 x56 -1 x62 -1 x66  +3 ~x61 >= -2;
+1 x56 +1 x62 +1 x66  +3 ~x61 >= 2;
 -1 x11 -1 x36 -1 x61 >= -1;
-1 x11 -1 x17 -1 x21  +3 ~x16 >= -2;
+1 x11 +1 x17 +1 x21  +3 ~x16 >= 2;
-1 x36 -1 x42 -1 x46  +3 ~x41 >= -2;
+1 x36 +1 x42 +1 x46  +3 ~x41 >= 2;
-1 x61 -1 x67 -1 x71  +3 ~x66 >= -2;
+1 x61 +1 x67 +1 x71  +3 ~x66 >= 2;
 -1 x16 -1 x41 -1 x66 >= -1;
-1 x16 -1 x22  +3 ~x21 >= -2;
+1 x16 +1 x22  +3 ~x21 >= 2;
-1 x41 -1 x47  +3 ~x46 >= -2;
+1 x41 +1 x47  +3 ~x46 >= 2;
-1 x66 -1 x72  +3 ~x71 >= -2;
+1 x66 +1 x72  +3 ~x71 >= 2;
 -1 x21 -1 x46 -1 x71 >= -1;
-1 x1 -1 x3 -1 x7  +3 ~x2 >= -2;
+1 x1 +1 x3 +1 x7  +3 ~x2 >= 2;
-1 x26 -1 x28 -1 x32  +3 ~x27 >= -2;
+1 x26 +1 x28 +1 x32  +3 ~x27 >= 2;
-1 x51 -1 x53 -1 x57  +3 ~x52 >= -2;
+1 x51 +1 x53 +1 x57  +3 ~x52 >= 2;
 -1 x2 -1 x27 -1 x52 >= -1;
 -1 x7 -1 x32 -1 x57 >= -1;
 -1 x12 -1 x37 -1 x62 >= -1;
-1 x16 -1 x12 -1 x18 -1 x22  +3 ~x17 >= -2;
+1 x16 +1 x12 +1 x18 +1 x22  +3 ~x17 >= 2;
-1 x41 -1 x37 -1 x43 -1 x47  +3 ~x42 >= -2;
+1 x41 +1 x37 +1 x43 +1 x47  +3 ~x42 >= 2;
-1 x66 -1 x62 -1 x68 -1 x72  +3 ~x67 >= -2;
+1 x66 +1 x62 +1 x68 +1 x72  +3 ~x67 >= 2;
 -1 x17 -1 x42 -1 x67 >= -1;
-1 x21 -1 x17 -1 x23  +3 ~x22 >= -2;
+1 x21 +1 x17 +1 x23  +3 ~x22 >= 2;
-1 x46 -1 x42 -1 x48  +3 ~x47 >= -2;
+1 x46 +1 x42 +1 x48  +3 ~x47 >= 2;
-1 x71 -1 x67 -1 x73  +3 ~x72 >= -2;
+1 x71 +1 x67 +1 x73  +3 ~x72 >= 2;
 -1 x22 -1 x47 -1 x72 >= -1;
-1 x2 -1 x4 -1 x8  +3 ~x3 >= -2;
+1 x2 +1 x4 +1 x8  +3 ~x3 >= 2;
-1 x27 -1 x29 -1 x33  +3 ~x28 >= -2;
+1 x27 +1 x29 +1 x33  +3 ~x28 >= 2;
-1 x52 -1 x54 -1 x58  +3 ~x53 >= -2;
+1 x52 +1 x54 +1 x58  +3 ~x53 >= 2;
 -1 x3 -1 x28 -1 x53 >= -1;
-1 x7 -1 x3 -1 x9 -1 x13  +3 ~x8 >= -2;
+1 x7 +1 x3 +1 x9 +1 x13  +3 ~x8 >= 2;
-1 x32 -1 x28 -1 x34 -1 x38  +3 ~x33 >= -2;
+1 x32 +1 x28 +1 x34 +1 x38  +3 ~x33 >= 2;
-1 x57 -1 x53 -1 x59 -1 x63  +3 ~x58 >= -2;
+1 x57 +1 x53 +1 x59 +1 x63  +3 ~x58 >= 2;
 -1 x8 -1 x33 -1 x58 >= -1;
-1 x12 -1 x8 -1 x14 -1 x18  +3 ~x13 >= -2;
+1 x12 +1 x8 +1 x14 +1 x18  +3 ~x13 >= 2;
-1 x37 -1 x33 -1 x39 -1 x43  +3 ~x38 >= -2;
+1 x37 +1 x33 +1 x39 +1 x43  +3 ~x38 >= 2;
-1 x62 -1 x58 -1 x64 -1 x68  +3 ~x63 >= -2;
+1 x62 +1 x58 +1 x64 +1 x68  +3 ~x63 >= 2;
 -1 x13 -1 x38 -1 x63 >= -1;
-1 x17 -1 x13 -1 x19 -1 x23  +3 ~x18 >= -2;
+1 x17 +1 x13 +1 x19 +1 x23  +3 ~x18 >= 2;
-1 x42 -1 x38 -1 x44 -1 x48  +3 ~x43 >= -2;
+1 x42 +1 x38 +1 x44 +1 x48  +3 ~x43 >= 2;
-1 x67 -1 x63 -1 x69 -1 x73  +3 ~x68 >= -2;
+1 x67 +1 x63 +1 x69 +1 x73  +3 ~x68 >= 2;
 -1 x18 -1 x43 -1 x68 >= -1;
-1 x22 -1 x18 -1 x24  +3 ~x23 >= -2;
+1 x22 +1 x18 +1 x24  +3 ~x23 >= 2;
-1 x47 -1 x43 -1 x49  +3 ~x48 >= -2;
+1 x47 +1 x43 +1 x49  +3 ~x48 >= 2;
-1 x72 -1 x68 -1 x74  +3 ~x73 >= -2;
+1 x72 +1 x68 +1 x74  +3 ~x73 >= 2;
 -1 x23 -1 x48 -1 x73 >= -1;
 -1 x4 -1 x29 -1 x54 >= -1;
-1 x8 -1 x4 -1 x10 -1 x14  +3 ~x9 >= -2;
+1 x8 +1 x4 +1 x10 +1 x14  +3 ~x9 >= 2;
-1 x33 -1 x29 -1 x35 -1 x39  +3 ~x34 >= -2;
+1 x33 +1 x29 +1 x35 +1 x39  +3 ~x34 >= 2;
-1 x58 -1 x54 -1 x60 -1 x64  +3 ~x59 >= -2;
+1 x58 +1 x54 +1 x60 +1 x64  +3 ~x59 >= 2;
 -1 x9 -1 x34 -1 x59 >= -1;
-1 x13 -1 x9 -1 x15 -1 x19  +3 ~x14 >= -2;
+1 x13 +1 x9 +1 x15 +1 x19  +3 ~x14 >= 2;
-1 x38 -1 x34 -1 x40 -1 x44  +3 ~x39 >= -2;
+1 x38 +1 x34 +1 x40 +1 x44  +3 ~x39 >= 2;
-1 x63 -1 x59 -1 x65 -1 x69  +3 ~x64 >= -2;
+1 x63 +1 x59 +1 x65 +1 x69  +3 ~x64 >= 2;
 -1 x14 -1 x39 -1 x64 >= -1;
-1 x18 -1 x14 -1 x20 -1 x24  +3 ~x19 >= -2;
+1 x18 +1 x14 +1 x20 +1 x24  +3 ~x19 >= 2;
-1 x43 -1 x39 -1 x45 -1 x49  +3 ~x44 >= -2;
+1 x43 +1 x39 +1 x45 +1 x49  +3 ~x44 >= 2;
-1 x68 -1 x64 -1 x70 -1 x74  +3 ~x69 >= -2;
+1 x68 +1 x64 +1 x70 +1 x74  +3 ~x69 >= 2;
 -1 x19 -1 x44 -1 x69 >= -1;
-1 x23 -1 x19 -1 x25  +3 ~x24 >= -2;
+1 x23 +1 x19 +1 x25  +3 ~x24 >= 2;
-1 x48 -1 x44 -1 x50  +3 ~x49 >= -2;
+1 x48 +1 x44 +1 x50  +3 ~x49 >= 2;
-1 x73 -1 x69 -1 x75  +3 ~x74 >= -2;
+1 x73 +1 x69 +1 x75  +3 ~x74 >= 2;
 -1 x24 -1 x49 -1 x74 >= -1;
-1 x4 -1 x10  +3 ~x5 >= -2;
+1 x4 +1 x10  +3 ~x5 >= 2;
-1 x29 -1 x35  +3 ~x30 >= -2;
+1 x29 +1 x35  +3 ~x30 >= 2;
-1 x54 -1 x60  +3 ~x55 >= -2;
+1 x54 +1 x60  +3 ~x55 >= 2;
 -1 x5 -1 x30 -1 x55 >= -1;
-1 x9 -1 x5 -1 x15  +3 ~x10 >= -2;
+1 x9 +1 x5 +1 x15  +3 ~x10 >= 2;
-1 x34 -1 x30 -1 x40  +3 ~x35 >= -2;
+1 x34 +1 x30 +1 x40  +3 ~x35 >= 2;
-1 x59 -1 x55 -1 x65  +3 ~x60 >= -2;
+1 x59 +1 x55 +1 x65  +3 ~x60 >= 2;
 -1 x10 -1 x35 -1 x60 >= -1;
 -1 x15 -1 x40 -1 x65 >= -1;
 -1 x20 -1 x45 -1 x70 >= -1;
-1 x24 -1 x20  +3 ~x25 >= -2;
+1 x24 +1 x20  +3 ~x25 >= 2;
-1 x49 -1 x45  +3 ~x50 >= -2;
+1 x49 +1 x45  +3 ~x50 >= 2;
-1 x74 -1 x70  +3 ~x75 >= -2;
+1 x74 +1 x70  +3 ~x75 >= 2;
 -1 x25 -1 x50 -1 x75 >= -1;
 -1 x1 -1 x2 -1 x3 -1 x4 -1 x5 -1 x6 -1 x7 -1 x8 -1 x9 -1 x10 -1 x11 -1 x12 -1 x13 -1 x14 -1 x15 -1 x16 -1 x17 -1 x18 -1 x19 -1 x20 -1 x21 -1 x22 -1 x23 -1 x24 -1 x25 -1 x26 -1 x27 -1 x28 -1 x29 -1 x30 -1 x31 -1 x32 -1 x33 -1 x34 -1 x35 -1 x36 -1 x37 -1 x38 -1 x39 -1 x40 -1 x41 -1 x42 -1 x43 -1 x44 -1 x45 -1 x46 -1 x47 -1 x48 -1 x49 -1 x50 -1 x51 -1 x52 -1 x53 -1 x54 -1 x55 -1 x56 -1 x57 -1 x58 -1 x59 -1 x60 -1 x61 -1 x62 -1 x63 -1 x64 -1 x65 -1 x66 -1 x67 -1 x68 -1 x69 -1 x70 -1 x71 -1 x72 -1 x73 -1 x74 -1 x75>= -15;
